40
   100    75    71     8    49    56    90    17    13    41    90    48    93    92    76    77    21    25    28    86    55    10     9    58    84    70    57    79    22    79    88    38    13    66    99    28    29    13    61    46
     2     5     9    10     2     2     4     8     4     7     6     7     5    10     2     2     9     7     2     6    10     8     2     7     9     1     6    10     7     9     7     2     3     2     9     3     2     4     8     1
  1246   152   965  1255   353  1193  1701  1284  1061   960  1505  1466   318  1651  1082   282  1048   985   400  1832  1151   243  1182  1721   861   411  1850     0   382  1578    17     0   766  1244   394  1199  1550   200     0  1856
